Maximize
  - 2.359224441744 edge_0_1_0_0 - 1.5770999121533 edge_0_2_0_0
   - 0.71868600304508 edge_0_3_0_0 - 3.6249213972175 edge_0_5_0_0
   - 1.8397616556944 edge_0_6_0_0 - 1.4498395833726 edge_0_7_0_0
   - 2.7800870408192 edge_0_8_0_0 - 2.385001328274 edge_0_9_0_0
   - 4.525681270627699 edge_0_11_0_0 - 1.4757179991066 edge_0_12_0_0
   - 1.7219846236191 edge_0_13_0_0 + 1.134817481834911 edge_1_2_0_0
   + 0.8897630617154685 edge_1_3_0_0 - 0.2549846561353522 edge_1_5_0_0
   + 0.459903056806352 edge_1_6_0_0 - 0.1070945050217363 edge_1_7_0_0
   - 0.3449257139208752 edge_1_8_0_0 + 0.0112720200581488 edge_1_11_0_0
   - 0.1738420096678563 edge_1_12_0_0 + 1.3825969587899 edge_1_13_0_0
   + 0.2836875961497163 edge_2_1_0_0 + 0.0962433542258834 edge_2_2_0_0
   + 1.052683785655692 edge_2_3_0_0 + 0.3073408943615639 edge_2_5_0_0
   + 0.7059064658301807 edge_2_6_0_0 - 0.1082129406523703 edge_2_7_0_0
   - 0.3305277379607718 edge_2_8_0_0 - 0.0967002678812722 edge_2_9_0_0
   + 0.100271397894203 edge_2_12_0_0 + 0.93753091855488 edge_2_13_0_0
   + 2.860979649050587 edge_3_1_0_0 + 3.829958425485623 edge_3_2_0_0
   + 1.398294676381039 edge_3_5_0_0 + 2.368751757805216 edge_3_6_0_0
   + 0.4185379694801077 edge_3_7_0_0 + 0.5400177915212063 edge_3_8_0_0
   + 0.2244436082956905 edge_3_9_0_0 - 0.6447978072263114 edge_3_11_0_0
   + 0.8062247653378688 edge_3_12_0_0 + 3.7707768657056 edge_3_13_0_0
   - 1.31908702882856 edge_5_1_0_0 - 0.1925957865125889 edge_5_2_0_0
   - 0.4861373714706004 edge_5_3_0_0 + 1.334143105431023 edge_5_6_0_0
   + 0.3526961167071476 edge_5_7_0_0 - 0.1588368327461965 edge_5_8_0_0
   + 0.1981032876559627 edge_5_9_0_0 + 0.3610006282565108 edge_5_12_0_0
   + 0.2583395188860451 edge_5_13_0_0 + 0.2856645703015357 edge_6_1_0_0
   + 0.9430923983443953 edge_6_2_0_0 + 0.6816281181398193 edge_6_3_0_0
   + 3.077062128874232 edge_6_5_0_0 + 0.6739637637187131 edge_6_7_0_0
   - 0.2542816452329201 edge_6_8_0_0 + 0.3510969358876165 edge_6_9_0_0
   - 0.1092759929032198 edge_6_11_0_0 + 1.055714503173226 edge_6_12_0_0
   + 1.211206684100529 edge_6_13_0_0 - 0.038820381758691 edge_7_1_0_0
   - 0.0532355706050876 edge_7_2_0_0 + 0.1168790889549156 edge_7_3_0_0
   - 0.0943942232531458 edge_7_5_0_0 - 0.1397378914852749 edge_7_6_0_0
   + 0.6010413489510501 edge_7_8_0_0 + 0.4290239408858281 edge_7_9_0_0
   + 0.2083089411497431 edge_7_11_0_0 - 0.136428746437794 edge_7_12_0_0
   + 0.5718897117281728 edge_7_13_0_0 - 0.3355120310097542 edge_8_1_0_0
   - 0.00366467072452422 edge_8_2_0_0 + 0.1344699485012567 edge_8_3_0_0
   - 0.4933296255888702 edge_8_5_0_0 + 0.0781476407627765 edge_8_6_0_0
   + 0.4918761084512038 edge_8_7_0_0 + 0.9326998380431915 edge_8_9_0_0
   + 0.6851723921046705 edge_8_11_0_0 + 0.2396665282194682 edge_8_12_0_0
   + 1.1293585205384 edge_8_13_0_0 - 1.246303086948026 edge_9_1_0_0
   - 0.5295805132504641 edge_9_2_0_0 - 0.6427789020104495 edge_9_3_0_0
   - 0.6575195332096512 edge_9_5_0_0 - 0.8709885449599269 edge_9_6_0_0
   + 0.4449310559660503 edge_9_7_0_0 + 0.7329145562479934 edge_9_8_0_0
   + 0.3065055458217441 edge_9_11_0_0 + 0.5884252471501521 edge_9_12_0_0
   + 0.5440293038266899 edge_9_13_0_0 - 0.9232132726473442 edge_11_1_0_0
   - 1.205379710377143 edge_11_3_0_0 - 1.839436867708941 edge_11_5_0_0
   - 0.351874855597992 edge_11_6_0_0 - 0.5291331747222674 edge_11_7_0_0
   + 0.0418644129872331 edge_11_8_0_0 + 0.2428543227746469 edge_11_9_0_0
   + 0.6032874859650641 edge_11_12_0_0 + 0.31173152223688 edge_11_13_0_0
   + 0.6000036549843402 edge_12_1_0_0 + 0.4303742434585074 edge_12_2_0_0
   + 0.2963644817438427 edge_12_3_0_0 + 0.2590666764966942 edge_12_5_0_0
   + 0.4819757646271842 edge_12_6_0_0 + 2.708822594748581 edge_12_7_0_0
   + 2.6658355147772 edge_12_8_0_0 + 2.855740264219139 edge_12_9_0_0
   + 2.557629523927039 edge_12_11_0_0 + 2.2796298167589 edge_12_13_0_0
   - 0.00442961624225294 edge_13_2_0_0 + 0.2149622604608345 edge_13_3_0_0
   - 1.192131840251583 edge_13_5_0_0 + 0.181379179178062 edge_13_6_0_0
   + 1.163513406475815 edge_13_7_0_0 + 1.111406614438841 edge_13_9_0_0
   + 0.6486857823891183 edge_13_12_0_0
Subject To
 one_parent_1: edge_0_1_0_0 + edge_2_1_0_0 + edge_3_1_0_0 + edge_5_1_0_0
   + edge_6_1_0_0 + edge_7_1_0_0 + edge_8_1_0_0 + edge_9_1_0_0
   + edge_11_1_0_0 + edge_12_1_0_0 = 1
 consume_one_flow_unit_1: flow_0_1_0_0 - flow_1_2_0_0 - flow_1_3_0_0
   - flow_1_5_0_0 - flow_1_6_0_0 - flow_1_7_0_0 - flow_1_8_0_0
   - flow_1_11_0_0 - flow_1_12_0_0 - flow_1_13_0_0 + flow_2_1_0_0
   + flow_3_1_0_0 + flow_5_1_0_0 + flow_6_1_0_0 + flow_7_1_0_0
   + flow_8_1_0_0 + flow_9_1_0_0 + flow_11_1_0_0 + flow_12_1_0_0 = 1
 one_parent_2: edge_0_2_0_0 + edge_1_2_0_0 + edge_2_2_0_0 + edge_3_2_0_0
   + edge_5_2_0_0 + edge_6_2_0_0 + edge_7_2_0_0 + edge_8_2_0_0
   + edge_9_2_0_0 + edge_12_2_0_0 + edge_13_2_0_0 = 1
 consume_one_flow_unit_2: flow_0_2_0_0 + flow_1_2_0_0 - flow_2_1_0_0
   - flow_2_3_0_0 - flow_2_5_0_0 - flow_2_6_0_0 - flow_2_7_0_0
   - flow_2_8_0_0 - flow_2_9_0_0 - flow_2_12_0_0 - flow_2_13_0_0
   + flow_3_2_0_0 + flow_5_2_0_0 + flow_6_2_0_0 + flow_7_2_0_0
   + flow_8_2_0_0 + flow_9_2_0_0 + flow_12_2_0_0 + flow_13_2_0_0 = 1
 one_parent_3: edge_0_3_0_0 + edge_1_3_0_0 + edge_2_3_0_0 + edge_5_3_0_0
   + edge_6_3_0_0 + edge_7_3_0_0 + edge_8_3_0_0 + edge_9_3_0_0
   + edge_11_3_0_0 + edge_12_3_0_0 + edge_13_3_0_0 = 1
 consume_one_flow_unit_3: flow_0_3_0_0 + flow_1_3_0_0 + flow_2_3_0_0
   - flow_3_1_0_0 - flow_3_2_0_0 - flow_3_5_0_0 - flow_3_6_0_0
   - flow_3_7_0_0 - flow_3_8_0_0 - flow_3_9_0_0 - flow_3_11_0_0
   - flow_3_12_0_0 - flow_3_13_0_0 + flow_5_3_0_0 + flow_6_3_0_0
   + flow_7_3_0_0 + flow_8_3_0_0 + flow_9_3_0_0 + flow_11_3_0_0
   + flow_12_3_0_0 + flow_13_3_0_0 = 1
 one_parent_4: = 1
 consume_one_flow_unit_4: = 1
 one_parent_5: edge_0_5_0_0 + edge_1_5_0_0 + edge_2_5_0_0 + edge_3_5_0_0
   + edge_6_5_0_0 + edge_7_5_0_0 + edge_8_5_0_0 + edge_9_5_0_0
   + edge_11_5_0_0 + edge_12_5_0_0 + edge_13_5_0_0 = 1
 consume_one_flow_unit_5: flow_0_5_0_0 + flow_1_5_0_0 + flow_2_5_0_0
   + flow_3_5_0_0 - flow_5_1_0_0 - flow_5_2_0_0 - flow_5_3_0_0
   - flow_5_6_0_0 - flow_5_7_0_0 - flow_5_8_0_0 - flow_5_9_0_0
   - flow_5_12_0_0 - flow_5_13_0_0 + flow_6_5_0_0 + flow_7_5_0_0
   + flow_8_5_0_0 + flow_9_5_0_0 + flow_11_5_0_0 + flow_12_5_0_0
   + flow_13_5_0_0 = 1
 one_parent_6: edge_0_6_0_0 + edge_1_6_0_0 + edge_2_6_0_0 + edge_3_6_0_0
   + edge_5_6_0_0 + edge_7_6_0_0 + edge_8_6_0_0 + edge_9_6_0_0
   + edge_11_6_0_0 + edge_12_6_0_0 + edge_13_6_0_0 = 1
 consume_one_flow_unit_6: flow_0_6_0_0 + flow_1_6_0_0 + flow_2_6_0_0
   + flow_3_6_0_0 + flow_5_6_0_0 - flow_6_1_0_0 - flow_6_2_0_0
   - flow_6_3_0_0 - flow_6_5_0_0 - flow_6_7_0_0 - flow_6_8_0_0
   - flow_6_9_0_0 - flow_6_11_0_0 - flow_6_12_0_0 - flow_6_13_0_0
   + flow_7_6_0_0 + flow_8_6_0_0 + flow_9_6_0_0 + flow_11_6_0_0
   + flow_12_6_0_0 + flow_13_6_0_0 = 1
 one_parent_7: edge_0_7_0_0 + edge_1_7_0_0 + edge_2_7_0_0 + edge_3_7_0_0
   + edge_5_7_0_0 + edge_6_7_0_0 + edge_8_7_0_0 + edge_9_7_0_0
   + edge_11_7_0_0 + edge_12_7_0_0 + edge_13_7_0_0 = 1
 consume_one_flow_unit_7: flow_0_7_0_0 + flow_1_7_0_0 + flow_2_7_0_0
   + flow_3_7_0_0 + flow_5_7_0_0 + flow_6_7_0_0 - flow_7_1_0_0
   - flow_7_2_0_0 - flow_7_3_0_0 - flow_7_5_0_0 - flow_7_6_0_0
   - flow_7_8_0_0 - flow_7_9_0_0 - flow_7_11_0_0 - flow_7_12_0_0
   - flow_7_13_0_0 + flow_8_7_0_0 + flow_9_7_0_0 + flow_11_7_0_0
   + flow_12_7_0_0 + flow_13_7_0_0 = 1
 one_parent_8: edge_0_8_0_0 + edge_1_8_0_0 + edge_2_8_0_0 + edge_3_8_0_0
   + edge_5_8_0_0 + edge_6_8_0_0 + edge_7_8_0_0 + edge_9_8_0_0
   + edge_11_8_0_0 + edge_12_8_0_0 = 1
 consume_one_flow_unit_8: flow_0_8_0_0 + flow_1_8_0_0 + flow_2_8_0_0
   + flow_3_8_0_0 + flow_5_8_0_0 + flow_6_8_0_0 + flow_7_8_0_0
   - flow_8_1_0_0 - flow_8_2_0_0 - flow_8_3_0_0 - flow_8_5_0_0
   - flow_8_6_0_0 - flow_8_7_0_0 - flow_8_9_0_0 - flow_8_11_0_0
   - flow_8_12_0_0 - flow_8_13_0_0 + flow_9_8_0_0 + flow_11_8_0_0
   + flow_12_8_0_0 = 1
 one_parent_9: edge_0_9_0_0 + edge_2_9_0_0 + edge_3_9_0_0 + edge_5_9_0_0
   + edge_6_9_0_0 + edge_7_9_0_0 + edge_8_9_0_0 + edge_11_9_0_0
   + edge_12_9_0_0 + edge_13_9_0_0 = 1
 consume_one_flow_unit_9: flow_0_9_0_0 + flow_2_9_0_0 + flow_3_9_0_0
   + flow_5_9_0_0 + flow_6_9_0_0 + flow_7_9_0_0 + flow_8_9_0_0
   - flow_9_1_0_0 - flow_9_2_0_0 - flow_9_3_0_0 - flow_9_5_0_0
   - flow_9_6_0_0 - flow_9_7_0_0 - flow_9_8_0_0 - flow_9_11_0_0
   - flow_9_12_0_0 - flow_9_13_0_0 + flow_11_9_0_0 + flow_12_9_0_0
   + flow_13_9_0_0 = 1
 one_parent_10: = 1
 consume_one_flow_unit_10: = 1
 one_parent_11: edge_0_11_0_0 + edge_1_11_0_0 + edge_3_11_0_0
   + edge_6_11_0_0 + edge_7_11_0_0 + edge_8_11_0_0 + edge_9_11_0_0
   + edge_12_11_0_0 = 1
 consume_one_flow_unit_11: flow_0_11_0_0 + flow_1_11_0_0 + flow_3_11_0_0
   + flow_6_11_0_0 + flow_7_11_0_0 + flow_8_11_0_0 + flow_9_11_0_0
   - flow_11_1_0_0 - flow_11_3_0_0 - flow_11_5_0_0 - flow_11_6_0_0
   - flow_11_7_0_0 - flow_11_8_0_0 - flow_11_9_0_0 - flow_11_12_0_0
   - flow_11_13_0_0 + flow_12_11_0_0 = 1
 one_parent_12: edge_0_12_0_0 + edge_1_12_0_0 + edge_2_12_0_0
   + edge_3_12_0_0 + edge_5_12_0_0 + edge_6_12_0_0 + edge_7_12_0_0
   + edge_8_12_0_0 + edge_9_12_0_0 + edge_11_12_0_0 + edge_13_12_0_0 = 1
 consume_one_flow_unit_12: flow_0_12_0_0 + flow_1_12_0_0 + flow_2_12_0_0
   + flow_3_12_0_0 + flow_5_12_0_0 + flow_6_12_0_0 + flow_7_12_0_0
   + flow_8_12_0_0 + flow_9_12_0_0 + flow_11_12_0_0 - flow_12_1_0_0
   - flow_12_2_0_0 - flow_12_3_0_0 - flow_12_5_0_0 - flow_12_6_0_0
   - flow_12_7_0_0 - flow_12_8_0_0 - flow_12_9_0_0 - flow_12_11_0_0
   - flow_12_13_0_0 + flow_13_12_0_0 = 1
 one_parent_13: edge_0_13_0_0 + edge_1_13_0_0 + edge_2_13_0_0
   + edge_3_13_0_0 + edge_5_13_0_0 + edge_6_13_0_0 + edge_7_13_0_0
   + edge_8_13_0_0 + edge_9_13_0_0 + edge_11_13_0_0 + edge_12_13_0_0 = 1
 consume_one_flow_unit_13: flow_0_13_0_0 + flow_1_13_0_0 + flow_2_13_0_0
   + flow_3_13_0_0 + flow_5_13_0_0 + flow_6_13_0_0 + flow_7_13_0_0
   + flow_8_13_0_0 + flow_9_13_0_0 + flow_11_13_0_0 + flow_12_13_0_0
   - flow_13_2_0_0 - flow_13_3_0_0 - flow_13_5_0_0 - flow_13_6_0_0
   - flow_13_7_0_0 - flow_13_9_0_0 - flow_13_12_0_0 = 1
 root_flow: flow_0_1_0_0 + flow_0_2_0_0 + flow_0_3_0_0 + flow_0_5_0_0
   + flow_0_6_0_0 + flow_0_7_0_0 + flow_0_8_0_0 + flow_0_9_0_0
   + flow_0_11_0_0 + flow_0_12_0_0 + flow_0_13_0_0 = 13
 inactive_no_flow_0_1_0_0: flow_0_1_0_0 - 1000 edge_0_1_0_0 <= 0
 inactive_no_flow_0_2_0_0: flow_0_2_0_0 - 1000 edge_0_2_0_0 <= 0
 inactive_no_flow_0_3_0_0: flow_0_3_0_0 - 1000 edge_0_3_0_0 <= 0
 inactive_no_flow_0_5_0_0: flow_0_5_0_0 - 1000 edge_0_5_0_0 <= 0
 inactive_no_flow_0_6_0_0: flow_0_6_0_0 - 1000 edge_0_6_0_0 <= 0
 inactive_no_flow_0_7_0_0: flow_0_7_0_0 - 1000 edge_0_7_0_0 <= 0
 inactive_no_flow_0_8_0_0: flow_0_8_0_0 - 1000 edge_0_8_0_0 <= 0
 inactive_no_flow_0_9_0_0: flow_0_9_0_0 - 1000 edge_0_9_0_0 <= 0
 inactive_no_flow_0_11_0_0: flow_0_11_0_0 - 1000 edge_0_11_0_0 <= 0
 inactive_no_flow_0_12_0_0: flow_0_12_0_0 - 1000 edge_0_12_0_0 <= 0
 inactive_no_flow_0_13_0_0: flow_0_13_0_0 - 1000 edge_0_13_0_0 <= 0
 inactive_no_flow_1_2_0_0: flow_1_2_0_0 - 1000 edge_1_2_0_0 <= 0
 inactive_no_flow_1_3_0_0: flow_1_3_0_0 - 1000 edge_1_3_0_0 <= 0
 inactive_no_flow_1_5_0_0: flow_1_5_0_0 - 1000 edge_1_5_0_0 <= 0
 inactive_no_flow_1_6_0_0: flow_1_6_0_0 - 1000 edge_1_6_0_0 <= 0
 inactive_no_flow_1_7_0_0: flow_1_7_0_0 - 1000 edge_1_7_0_0 <= 0
 inactive_no_flow_1_8_0_0: flow_1_8_0_0 - 1000 edge_1_8_0_0 <= 0
 inactive_no_flow_1_11_0_0: flow_1_11_0_0 - 1000 edge_1_11_0_0 <= 0
 inactive_no_flow_1_12_0_0: flow_1_12_0_0 - 1000 edge_1_12_0_0 <= 0
 inactive_no_flow_1_13_0_0: flow_1_13_0_0 - 1000 edge_1_13_0_0 <= 0
 inactive_no_flow_2_1_0_0: flow_2_1_0_0 - 1000 edge_2_1_0_0 <= 0
 inactive_no_flow_2_2_0_0: flow_2_2_0_0 - 1000 edge_2_2_0_0 <= 0
 inactive_no_flow_2_3_0_0: flow_2_3_0_0 - 1000 edge_2_3_0_0 <= 0
 inactive_no_flow_2_5_0_0: flow_2_5_0_0 - 1000 edge_2_5_0_0 <= 0
 inactive_no_flow_2_6_0_0: flow_2_6_0_0 - 1000 edge_2_6_0_0 <= 0
 inactive_no_flow_2_7_0_0: flow_2_7_0_0 - 1000 edge_2_7_0_0 <= 0
 inactive_no_flow_2_8_0_0: flow_2_8_0_0 - 1000 edge_2_8_0_0 <= 0
 inactive_no_flow_2_9_0_0: flow_2_9_0_0 - 1000 edge_2_9_0_0 <= 0
 inactive_no_flow_2_12_0_0: flow_2_12_0_0 - 1000 edge_2_12_0_0 <= 0
 inactive_no_flow_2_13_0_0: flow_2_13_0_0 - 1000 edge_2_13_0_0 <= 0
 inactive_no_flow_3_1_0_0: flow_3_1_0_0 - 1000 edge_3_1_0_0 <= 0
 inactive_no_flow_3_2_0_0: flow_3_2_0_0 - 1000 edge_3_2_0_0 <= 0
 inactive_no_flow_3_5_0_0: flow_3_5_0_0 - 1000 edge_3_5_0_0 <= 0
 inactive_no_flow_3_6_0_0: flow_3_6_0_0 - 1000 edge_3_6_0_0 <= 0
 inactive_no_flow_3_7_0_0: flow_3_7_0_0 - 1000 edge_3_7_0_0 <= 0
 inactive_no_flow_3_8_0_0: flow_3_8_0_0 - 1000 edge_3_8_0_0 <= 0
 inactive_no_flow_3_9_0_0: flow_3_9_0_0 - 1000 edge_3_9_0_0 <= 0
 inactive_no_flow_3_11_0_0: flow_3_11_0_0 - 1000 edge_3_11_0_0 <= 0
 inactive_no_flow_3_12_0_0: flow_3_12_0_0 - 1000 edge_3_12_0_0 <= 0
 inactive_no_flow_3_13_0_0: flow_3_13_0_0 - 1000 edge_3_13_0_0 <= 0
 inactive_no_flow_5_1_0_0: flow_5_1_0_0 - 1000 edge_5_1_0_0 <= 0
 inactive_no_flow_5_2_0_0: flow_5_2_0_0 - 1000 edge_5_2_0_0 <= 0
 inactive_no_flow_5_3_0_0: flow_5_3_0_0 - 1000 edge_5_3_0_0 <= 0
 inactive_no_flow_5_6_0_0: flow_5_6_0_0 - 1000 edge_5_6_0_0 <= 0
 inactive_no_flow_5_7_0_0: flow_5_7_0_0 - 1000 edge_5_7_0_0 <= 0
 inactive_no_flow_5_8_0_0: flow_5_8_0_0 - 1000 edge_5_8_0_0 <= 0
 inactive_no_flow_5_9_0_0: flow_5_9_0_0 - 1000 edge_5_9_0_0 <= 0
 inactive_no_flow_5_12_0_0: flow_5_12_0_0 - 1000 edge_5_12_0_0 <= 0
 inactive_no_flow_5_13_0_0: flow_5_13_0_0 - 1000 edge_5_13_0_0 <= 0
 inactive_no_flow_6_1_0_0: flow_6_1_0_0 - 1000 edge_6_1_0_0 <= 0
 inactive_no_flow_6_2_0_0: flow_6_2_0_0 - 1000 edge_6_2_0_0 <= 0
 inactive_no_flow_6_3_0_0: flow_6_3_0_0 - 1000 edge_6_3_0_0 <= 0
 inactive_no_flow_6_5_0_0: flow_6_5_0_0 - 1000 edge_6_5_0_0 <= 0
 inactive_no_flow_6_7_0_0: flow_6_7_0_0 - 1000 edge_6_7_0_0 <= 0
 inactive_no_flow_6_8_0_0: flow_6_8_0_0 - 1000 edge_6_8_0_0 <= 0
 inactive_no_flow_6_9_0_0: flow_6_9_0_0 - 1000 edge_6_9_0_0 <= 0
 inactive_no_flow_6_11_0_0: flow_6_11_0_0 - 1000 edge_6_11_0_0 <= 0
 inactive_no_flow_6_12_0_0: flow_6_12_0_0 - 1000 edge_6_12_0_0 <= 0
 inactive_no_flow_6_13_0_0: flow_6_13_0_0 - 1000 edge_6_13_0_0 <= 0
 inactive_no_flow_7_1_0_0: flow_7_1_0_0 - 1000 edge_7_1_0_0 <= 0
 inactive_no_flow_7_2_0_0: flow_7_2_0_0 - 1000 edge_7_2_0_0 <= 0
 inactive_no_flow_7_3_0_0: flow_7_3_0_0 - 1000 edge_7_3_0_0 <= 0
 inactive_no_flow_7_5_0_0: flow_7_5_0_0 - 1000 edge_7_5_0_0 <= 0
 inactive_no_flow_7_6_0_0: flow_7_6_0_0 - 1000 edge_7_6_0_0 <= 0
 inactive_no_flow_7_8_0_0: flow_7_8_0_0 - 1000 edge_7_8_0_0 <= 0
 inactive_no_flow_7_9_0_0: flow_7_9_0_0 - 1000 edge_7_9_0_0 <= 0
 inactive_no_flow_7_11_0_0: flow_7_11_0_0 - 1000 edge_7_11_0_0 <= 0
 inactive_no_flow_7_12_0_0: flow_7_12_0_0 - 1000 edge_7_12_0_0 <= 0
 inactive_no_flow_7_13_0_0: flow_7_13_0_0 - 1000 edge_7_13_0_0 <= 0
 inactive_no_flow_8_1_0_0: flow_8_1_0_0 - 1000 edge_8_1_0_0 <= 0
 inactive_no_flow_8_2_0_0: flow_8_2_0_0 - 1000 edge_8_2_0_0 <= 0
 inactive_no_flow_8_3_0_0: flow_8_3_0_0 - 1000 edge_8_3_0_0 <= 0
 inactive_no_flow_8_5_0_0: flow_8_5_0_0 - 1000 edge_8_5_0_0 <= 0
 inactive_no_flow_8_6_0_0: flow_8_6_0_0 - 1000 edge_8_6_0_0 <= 0
 inactive_no_flow_8_7_0_0: flow_8_7_0_0 - 1000 edge_8_7_0_0 <= 0
 inactive_no_flow_8_9_0_0: flow_8_9_0_0 - 1000 edge_8_9_0_0 <= 0
 inactive_no_flow_8_11_0_0: flow_8_11_0_0 - 1000 edge_8_11_0_0 <= 0
 inactive_no_flow_8_12_0_0: flow_8_12_0_0 - 1000 edge_8_12_0_0 <= 0
 inactive_no_flow_8_13_0_0: flow_8_13_0_0 - 1000 edge_8_13_0_0 <= 0
 inactive_no_flow_9_1_0_0: flow_9_1_0_0 - 1000 edge_9_1_0_0 <= 0
 inactive_no_flow_9_2_0_0: flow_9_2_0_0 - 1000 edge_9_2_0_0 <= 0
 inactive_no_flow_9_3_0_0: flow_9_3_0_0 - 1000 edge_9_3_0_0 <= 0
 inactive_no_flow_9_5_0_0: flow_9_5_0_0 - 1000 edge_9_5_0_0 <= 0
 inactive_no_flow_9_6_0_0: flow_9_6_0_0 - 1000 edge_9_6_0_0 <= 0
 inactive_no_flow_9_7_0_0: flow_9_7_0_0 - 1000 edge_9_7_0_0 <= 0
 inactive_no_flow_9_8_0_0: flow_9_8_0_0 - 1000 edge_9_8_0_0 <= 0
 inactive_no_flow_9_11_0_0: flow_9_11_0_0 - 1000 edge_9_11_0_0 <= 0
 inactive_no_flow_9_12_0_0: flow_9_12_0_0 - 1000 edge_9_12_0_0 <= 0
 inactive_no_flow_9_13_0_0: flow_9_13_0_0 - 1000 edge_9_13_0_0 <= 0
 inactive_no_flow_11_1_0_0: flow_11_1_0_0 - 1000 edge_11_1_0_0 <= 0
 inactive_no_flow_11_3_0_0: flow_11_3_0_0 - 1000 edge_11_3_0_0 <= 0
 inactive_no_flow_11_5_0_0: flow_11_5_0_0 - 1000 edge_11_5_0_0 <= 0
 inactive_no_flow_11_6_0_0: flow_11_6_0_0 - 1000 edge_11_6_0_0 <= 0
 inactive_no_flow_11_7_0_0: flow_11_7_0_0 - 1000 edge_11_7_0_0 <= 0
 inactive_no_flow_11_8_0_0: flow_11_8_0_0 - 1000 edge_11_8_0_0 <= 0
 inactive_no_flow_11_9_0_0: flow_11_9_0_0 - 1000 edge_11_9_0_0 <= 0
 inactive_no_flow_11_12_0_0: flow_11_12_0_0 - 1000 edge_11_12_0_0 <= 0
 inactive_no_flow_11_13_0_0: flow_11_13_0_0 - 1000 edge_11_13_0_0 <= 0
 inactive_no_flow_12_1_0_0: flow_12_1_0_0 - 1000 edge_12_1_0_0 <= 0
 inactive_no_flow_12_2_0_0: flow_12_2_0_0 - 1000 edge_12_2_0_0 <= 0
 inactive_no_flow_12_3_0_0: flow_12_3_0_0 - 1000 edge_12_3_0_0 <= 0
 inactive_no_flow_12_5_0_0: flow_12_5_0_0 - 1000 edge_12_5_0_0 <= 0
 inactive_no_flow_12_6_0_0: flow_12_6_0_0 - 1000 edge_12_6_0_0 <= 0
 inactive_no_flow_12_7_0_0: flow_12_7_0_0 - 1000 edge_12_7_0_0 <= 0
 inactive_no_flow_12_8_0_0: flow_12_8_0_0 - 1000 edge_12_8_0_0 <= 0
 inactive_no_flow_12_9_0_0: flow_12_9_0_0 - 1000 edge_12_9_0_0 <= 0
 inactive_no_flow_12_11_0_0: flow_12_11_0_0 - 1000 edge_12_11_0_0 <= 0
 inactive_no_flow_12_13_0_0: flow_12_13_0_0 - 1000 edge_12_13_0_0 <= 0
 inactive_no_flow_13_2_0_0: flow_13_2_0_0 - 1000 edge_13_2_0_0 <= 0
 inactive_no_flow_13_3_0_0: flow_13_3_0_0 - 1000 edge_13_3_0_0 <= 0
 inactive_no_flow_13_5_0_0: flow_13_5_0_0 - 1000 edge_13_5_0_0 <= 0
 inactive_no_flow_13_6_0_0: flow_13_6_0_0 - 1000 edge_13_6_0_0 <= 0
 inactive_no_flow_13_7_0_0: flow_13_7_0_0 - 1000 edge_13_7_0_0 <= 0
 inactive_no_flow_13_9_0_0: flow_13_9_0_0 - 1000 edge_13_9_0_0 <= 0
 inactive_no_flow_13_12_0_0: flow_13_12_0_0 - 1000 edge_13_12_0_0 <= 0
Bounds
Binaries
 edge_0_1_0_0 edge_0_2_0_0 edge_0_3_0_0 edge_0_5_0_0 edge_0_6_0_0
 edge_0_7_0_0 edge_0_8_0_0 edge_0_9_0_0 edge_0_11_0_0 edge_0_12_0_0
 edge_0_13_0_0 edge_1_2_0_0 edge_1_3_0_0 edge_1_5_0_0 edge_1_6_0_0
 edge_1_7_0_0 edge_1_8_0_0 edge_1_11_0_0 edge_1_12_0_0 edge_1_13_0_0
 edge_2_1_0_0 edge_2_2_0_0 edge_2_3_0_0 edge_2_5_0_0 edge_2_6_0_0
 edge_2_7_0_0 edge_2_8_0_0 edge_2_9_0_0 edge_2_12_0_0 edge_2_13_0_0
 edge_3_1_0_0 edge_3_2_0_0 edge_3_5_0_0 edge_3_6_0_0 edge_3_7_0_0
 edge_3_8_0_0 edge_3_9_0_0 edge_3_11_0_0 edge_3_12_0_0 edge_3_13_0_0
 edge_5_1_0_0 edge_5_2_0_0 edge_5_3_0_0 edge_5_6_0_0 edge_5_7_0_0
 edge_5_8_0_0 edge_5_9_0_0 edge_5_12_0_0 edge_5_13_0_0 edge_6_1_0_0
 edge_6_2_0_0 edge_6_3_0_0 edge_6_5_0_0 edge_6_7_0_0 edge_6_8_0_0
 edge_6_9_0_0 edge_6_11_0_0 edge_6_12_0_0 edge_6_13_0_0 edge_7_1_0_0
 edge_7_2_0_0 edge_7_3_0_0 edge_7_5_0_0 edge_7_6_0_0 edge_7_8_0_0
 edge_7_9_0_0 edge_7_11_0_0 edge_7_12_0_0 edge_7_13_0_0 edge_8_1_0_0
 edge_8_2_0_0 edge_8_3_0_0 edge_8_5_0_0 edge_8_6_0_0 edge_8_7_0_0
 edge_8_9_0_0 edge_8_11_0_0 edge_8_12_0_0 edge_8_13_0_0 edge_9_1_0_0
 edge_9_2_0_0 edge_9_3_0_0 edge_9_5_0_0 edge_9_6_0_0 edge_9_7_0_0
 edge_9_8_0_0 edge_9_11_0_0 edge_9_12_0_0 edge_9_13_0_0 edge_11_1_0_0
 edge_11_3_0_0 edge_11_5_0_0 edge_11_6_0_0 edge_11_7_0_0 edge_11_8_0_0
 edge_11_9_0_0 edge_11_12_0_0 edge_11_13_0_0 edge_12_1_0_0 edge_12_2_0_0
 edge_12_3_0_0 edge_12_5_0_0 edge_12_6_0_0 edge_12_7_0_0 edge_12_8_0_0
 edge_12_9_0_0 edge_12_11_0_0 edge_12_13_0_0 edge_13_2_0_0 edge_13_3_0_0
 edge_13_5_0_0 edge_13_6_0_0 edge_13_7_0_0 edge_13_9_0_0 edge_13_12_0_0
End
